#######################################
### Exact MIP solver for the HHCRSP ###
#######################################
-- Instance file: new-instances/HHCRSP_50_10_42_1.6_C_C.txt
-- Max threads: 4
-- Time limit: 999999 seconds
-- Use initial solution: No
Trivial flow violations prevented generating 5859 variables.
Model exported.
Version identifier: 20.1.0.0 | 2020-11-10 | 9bedb6d68
CPXPARAM_Threads                                 4
CPXPARAM_TimeLimit                               999999
Parallel mode: deterministic, using up to 4 threads for concurrent optimization:
 * Starting dual Simplex on 1 thread...
 * Starting Barrier on 3 threads...
Tried aggregator 1 time.
LP Presolve eliminated 1302 rows and 341 columns.
Reduced LP has 6378 rows, 6180 columns, and 52619 nonzeros.
Presolve time = 0.03 sec. (15.48 ticks)
Symmetry aggregator did 2509 additional substitutions.

Iteration log . . .
Iteration:     1   Dual objective     =             0.000000
Iteration:   242   Dual objective     =            67.333333

Dual crossover.
  Dual:  Fixing 79 variables.
       78 DMoves:  Infeasibility  1.80411267e-14  Objective  6.73360333e+01
        0 DMoves:  Infeasibility  1.19904112e-14  Objective  6.73360333e+01
  Dual:  Pushed 2, exchanged 77.
  Primal:  Fixing 14 variables.
       13 PMoves:  Infeasibility  0.00000000e+00  Objective  6.73360333e+01
        0 PMoves:  Infeasibility  0.00000000e+00  Objective  6.73360333e+01
  Primal:  Pushed 0, exchanged 14.

Dual simplex solved model.


Solution status from MIP model:
-- Processing time: 0.055 sec.
-- Memory used: 72.792 MB
-- Best bound: inf
-- Obj value: 67.336
-- Gap: inf%
-- Total distance: 202.008
-- Total tardiness: 0
-- Largest tardiness: 0
